Problem:    zad22b
Rows:       25
Columns:    128
Non-zeros:  384
Status:     OPTIMAL
Objective:  f = 162 (MINimum)

   No.   Row name   St   Activity     Lower bound   Upper bound    Marginal
------ ------------ -- ------------- ------------- ------------- -------------
     1 f            B            162                             
     2 c1[A]        NS             1             1             =            37 
     3 c1[B]        NS             1             1             =            47 
     4 c1[C]        NS             1             1             =            23 
     5 c1[D]        NS             1             1             =            37 
     6 c1[E]        NS             1             1             =            43 
     7 c1[F]        NS             1             1             =            45 
     8 c1[G]        NS             1             1             =            25 
     9 c1[H]        NS             1             1             =            39 
    10 c2[1,1]      NU             1                           1           -33 
    11 c2[1,2]      NU             1                           1           -21 
    12 c2[1,3]      NU             1                           1           -12 
    13 c2[1,4]      NU             1                           1            -3 
    14 c2[1,5]      B              0                           1 
    15 c2[1,6]      B              0                           1 
    16 c2[1,7]      B              0                           1 
    17 c2[1,8]      B              0                           1 
    18 c2[2,1]      NU             1                           1           -31 
    19 c2[2,2]      NU             1                           1           -19 
    20 c2[2,3]      NU             1                           1           -10 
    21 c2[2,4]      NU             1                           1            -5 
    22 c2[2,5]      B              0                           1 
    23 c2[2,6]      B              0                           1 
    24 c2[2,7]      B              0                           1 
    25 c2[2,8]      B              0                           1 

   No. Column name  St   Activity     Lower bound   Upper bound    Marginal
------ ------------ -- ------------- ------------- ------------- -------------
     1 x[1,A,1]     NL             0             0                          10 
     2 x[1,A,2]     NL             0             0                          12 
     3 x[1,A,3]     NL             0             0                          17 
     4 x[1,A,4]     NL             0             0                          22 
     5 x[1,A,5]     NL             0             0                          33 
     6 x[1,A,6]     NL             0             0                          47 
     7 x[1,A,7]     NL             0             0                          61 
     8 x[1,A,8]     NL             0             0                          75 
     9 x[1,B,1]     B              1             0               
    10 x[1,B,2]     NL             0             0                           2 
    11 x[1,B,3]     NL             0             0                           7 
    12 x[1,B,4]     NL             0             0                          12 
    13 x[1,B,5]     NL             0             0                          23 
    14 x[1,B,6]     NL             0             0                          37 
    15 x[1,B,7]     NL             0             0                          51 
    16 x[1,B,8]     NL             0             0                          65 
    17 x[1,C,1]     NL             0             0                          15 
    18 x[1,C,2]     NL             0             0                           8 
    19 x[1,C,3]     NL             0             0                           4 
    20 x[1,C,4]     B              1             0               
    21 x[1,C,5]     NL             0             0                           2 
    22 x[1,C,6]     NL             0             0                           7 
    23 x[1,C,7]     NL             0             0                          12 
    24 x[1,C,8]     NL             0             0                          17 
    25 x[1,D,1]     NL             0             0                           7 
    26 x[1,D,2]     NL             0             0                           6 
    27 x[1,D,3]     NL             0             0                           8 
    28 x[1,D,4]     NL             0             0                          10 
    29 x[1,D,5]     NL             0             0                          18 
    30 x[1,D,6]     NL             0             0                          29 
    31 x[1,D,7]     NL             0             0                          40 
    32 x[1,D,8]     NL             0             0                          51 
    33 x[1,E,1]     NL             0             0                           4 
    34 x[1,E,2]     NL             0             0                           6 
    35 x[1,E,3]     NL             0             0                          11 
    36 x[1,E,4]     NL             0             0                          16 
    37 x[1,E,5]     NL             0             0                          27 
    38 x[1,E,6]     NL             0             0                          41 
    39 x[1,E,7]     NL             0             0                          55 
    40 x[1,E,8]     NL             0             0                          69 
    41 x[1,F,1]     B              0             0               
    42 x[1,F,2]     B              1             0               
    43 x[1,F,3]     NL             0             0                           3 
    44 x[1,F,4]     NL             0             0                           6 
    45 x[1,F,5]     NL             0             0                          15 
    46 x[1,F,6]     NL             0             0                          27 
    47 x[1,F,7]     NL             0             0                          39 
    48 x[1,F,8]     NL             0             0                          51 
    49 x[1,G,1]     NL             0             0                          16 
    50 x[1,G,2]     NL             0             0                          12 
    51 x[1,G,3]     NL             0             0                          11 
    52 x[1,G,4]     NL             0             0                          10 
    53 x[1,G,5]     NL             0             0                          15 
    54 x[1,G,6]     NL             0             0                          23 
    55 x[1,G,7]     NL             0             0                          31 
    56 x[1,G,8]     NL             0             0                          39 
    57 x[1,H,1]     NL             0             0                           3 
    58 x[1,H,2]     B              0             0               
    59 x[1,H,3]     B              1             0               
    60 x[1,H,4]     B              0             0               
    61 x[1,H,5]     NL             0             0                           6 
    62 x[1,H,6]     NL             0             0                          15 
    63 x[1,H,7]     NL             0             0                          24 
    64 x[1,H,8]     NL             0             0                          33 
    65 x[2,A,1]     NL             0             0                           3 
    66 x[2,A,2]     B              1             0               
    67 x[2,A,3]     NL             0             0                       < eps
    68 x[2,A,4]     NL             0             0                           4 
    69 x[2,A,5]     NL             0             0                           8 
    70 x[2,A,6]     NL             0             0                          17 
    71 x[2,A,7]     NL             0             0                          26 
    72 x[2,A,8]     NL             0             0                          35 
    73 x[2,B,1]     B              0             0               
    74 x[2,B,2]     NL             0             0                           4 
    75 x[2,B,3]     NL             0             0                          11 
    76 x[2,B,4]     NL             0             0                          22 
    77 x[2,B,5]     NL             0             0                          33 
    78 x[2,B,6]     NL             0             0                          49 
    79 x[2,B,7]     NL             0             0                          65 
    80 x[2,B,8]     NL             0             0                          81 
    81 x[2,C,1]     NL             0             0                          16 
    82 x[2,C,2]     NL             0             0                          12 
    83 x[2,C,3]     NL             0             0                          11 
    84 x[2,C,4]     NL             0             0                          14 
    85 x[2,C,5]     NL             0             0                          17 
    86 x[2,C,6]     NL             0             0                          25 
    87 x[2,C,7]     NL             0             0                          33 
    88 x[2,C,8]     NL             0             0                          41 
    89 x[2,D,1]     NL             0             0                           3 
    90 x[2,D,2]     B              0             0               
    91 x[2,D,3]     B              1             0               
    92 x[2,D,4]     NL             0             0                           4 
    93 x[2,D,5]     NL             0             0                           8 
    94 x[2,D,6]     NL             0             0                          17 
    95 x[2,D,7]     NL             0             0                          26 
    96 x[2,D,8]     NL             0             0                          35 
    97 x[2,E,1]     B              1             0               
    98 x[2,E,2]     B              0             0               
    99 x[2,E,3]     NL             0             0                           3 
   100 x[2,E,4]     NL             0             0                          10 
   101 x[2,E,5]     NL             0             0                          17 
   102 x[2,E,6]     NL             0             0                          29 
   103 x[2,E,7]     NL             0             0                          41 
   104 x[2,E,8]     NL             0             0                          53 
   105 x[2,F,1]     NL             0             0                           2 
   106 x[2,F,2]     NL             0             0                           6 
   107 x[2,F,3]     NL             0             0                          13 
   108 x[2,F,4]     NL             0             0                          24 
   109 x[2,F,5]     NL             0             0                          35 
   110 x[2,F,6]     NL             0             0                          51 
   111 x[2,F,7]     NL             0             0                          67 
   112 x[2,F,8]     NL             0             0                          83 
   113 x[2,G,1]     NL             0             0                          11 
   114 x[2,G,2]     NL             0             0                           4 
   115 x[2,G,3]     B              0             0               
   116 x[2,G,4]     B              1             0               
   117 x[2,G,5]     B              0             0               
   118 x[2,G,6]     NL             0             0                           5 
   119 x[2,G,7]     NL             0             0                          10 
   120 x[2,G,8]     NL             0             0                          15 
   121 x[2,H,1]     NL             0             0                           9 
   122 x[2,H,2]     NL             0             0                          14 
   123 x[2,H,3]     NL             0             0                          22 
   124 x[2,H,4]     NL             0             0                          34 
   125 x[2,H,5]     NL             0             0                          46 
   126 x[2,H,6]     NL             0             0                          63 
   127 x[2,H,7]     NL             0             0                          80 
   128 x[2,H,8]     NL             0             0                          97 

Karush-Kuhn-Tucker optimality conditions:

KKT.PE: max.abs.err = 0.00e+00 on row 0
        max.rel.err = 0.00e+00 on row 0
        High quality

KKT.PB: max.abs.err = 0.00e+00 on row 0
        max.rel.err = 0.00e+00 on row 0
        High quality

KKT.DE: max.abs.err = 0.00e+00 on column 0
        max.rel.err = 0.00e+00 on column 0
        High quality

KKT.DB: max.abs.err = 0.00e+00 on row 0
        max.rel.err = 0.00e+00 on row 0
        High quality

End of output
